qe/outputs/qe/cbrdelay_l0_discretize/T=5,eliminate=[I_0,I_1,I_2,I_3,I_4,L_4,lhs=Q_4].smt2.z3
[And(A_3 + -1*L_3 <= S_4,
     A_3 >= A_2,
     A_2 >= A_1,
     A_1 >= A_0,
     S_3 >= S_2,
     S_2 >= S_1,
     S_1 >= S_0,
     L_0 >= L0,
     S_3 >= A_2 + -1*L_2 + -1*B,
     Or(L_1 == L_0, S_1 <= A_1 + -1*L_1 + -1*B),
     Or(L_3 == L_2, S_3 <= A_3 + -1*L_3 + -1*B),
     Or(L_2 == L_1, S_2 <= A_2 + -1*L_2 + -1*B),
     Not(A_4 + -1*L_3 <= S_4),
     Or(L_2 == L_1,
        L_3 == L_2,
        A_3 + -1*L_3 == A_2 + -1*L_2 + C),
     Or(Not(Q_4 <= 0), A_4 + -1*A_3 + -1*C <= 0),
     Or(L_3 == L_2, S_4 <= A_3 + -1*L_3 + -1*B + C),
     Q_4 <= B,
     S_0 >= -1*B + -1*L_1 + A_1 + -2*C,
     -1*B + -1*L_1 + A_1 + -1*C <= A_0 + -1*L_0,
     S_2 >= A_1 + -1*L_1 + -1*B,
     Or(L_3 == L_2, Not(L_3 <= L_2)),
     Or(L_3 == L_2,
        Q_4 == B,
        -1*A_3 + B + -1*C + -1*Q_4 + A_4 == 0,
        Not(A_3 + C + Q_4 + -1*A_4 <= B)),
     Or(L_1 == L_0, Not(L_1 <= L_0)),
     Or(Q_4 == 0, Not(Q_4 <= 0)),
     Or(L_2 == L_1, Not(L_2 <= L_1)),
     S_1 >= -1*B + -1*L_1 + A_1 + -1*C,
     Or(L_3 == L_1,
        Not(A_2 <= A_1 + -1*B + C),
        A_3 + -1*L_3 + -1*B == A_2 + -1*L_1 + C),
     Or(L_1 == L_0, S_0 <= -1*B + -1*L_1 + A_1 + -1*C),
     Or(L_1 == L_0, S_2 <= A_1 + -1*L_1 + -1*B + C),
     Or(Q_4 == 0, A_3 + C + Q_4 + -1*A_4 <= B),
     Or(L_2 == L_1, S_1 <= -1*B + -1*L_2 + A_2 + -1*C),
     Or(A_2 <= A_1 + -1*B + C,
        S_3 >= A_1 + -1*L_1 + -1*B + C),
     Or(S_3 >= A_2 + -1*L_1, Not(A_2 <= A_1 + -1*B + C)),
     Or(L_1 == L_0,
        L_2 == L_1,
        A_2 + -1*L_2 == A_1 + -1*L_1 + C),
     S_2 <= A_2 + -1*L_1,
     S_2 >= -1*B + -1*L_2 + A_2 + -1*C,
     Or(L_1 == L_0,
        L_3 == L_2,
        A_2 <= A_1 + -1*B + C,
        A_3 + -1*L_3 == A_1 + -1*L_1 + 2*C),
     Or(Not(L_1 == L_2),
        L_1 == L_0,
        A_2 + -1*A_1 + -1*C <= 0),
     S_0 >= -1*B + -1*L_2 + A_2 + -3*C,
     Or(L_2 == L_1,
        A_1 + -1*L_0 <= -1*B + -1*L_2 + A_2 + -1*C,
        S_0 <= -1*B + -1*L_2 + A_2 + -2*C),
     S_3 <= A_3 + -1*L_2,
     Or(Q_4 == 0,
        A_2 + 2*C + Q_4 + -1*A_4 <= B,
        A_3 <= -1*C + -1*Q_4 + A_4),
     Or(L_2 == L_1,
        Not(L_3 <= L_2),
        Q_4 == B,
        -1*A_2 + B + -2*C + -1*Q_4 + A_4 == 0,
        Not(A_2 + 2*C + Q_4 + -1*A_4 <= B)),
     Or(S_4 <= A_2 + -1*L_2 + -1*B + 2*C,
        Not(0 == -1*A_2 + B + -2*C + -1*Q_4 + A_4)),
     Or(L_2 == L_1, S_4 <= A_2 + -1*L_2 + -1*Q_4 + 2*C),
     Or(L_2 == L_1,
        Not(L_2 == L_3),
        A_3 + -1*A_2 + -1*C <= 0),
     S_4 <= A_3 + -1*L_2 + C,
     Or(L_2 == L_1, S_3 <= A_2 + -1*L_2 + -1*B + C),
     Or(Q_4 == 0,
        A_2 <= A_1 + -1*B + C,
        A_1 + 3*C + Q_4 + -1*A_4 <= B,
        A_3 <= -1*C + -1*Q_4 + A_4),
     Or(Q_4 == 0,
        Not(A_2 <= A_1 + -1*B + C),
        Not(A_3 + -1*L_3 <= A_2 + -1*L_1 + C),
        A_3 <= -1*C + -1*Q_4 + A_4),
     Or(Q_4 == 0,
        A_3 + -1*A_2 + -1*C <= 0,
        A_2 <= -2*C + -1*Q_4 + A_4,
        Not(A_2 <= A_1 + -1*B + C)),
     Or(L_1 == L_0,
        Not(L_2 <= L_1),
        Not(L_3 <= L_2),
        Q_4 == B,
        Not(A_1 + 3*C + Q_4 + -1*A_4 <= B),
        -1*A_1 + B + -3*C + -1*Q_4 + A_4 == 0),
     Or(L_1 == L_0,
        Not(L_2 <= L_1),
        Not(L_3 <= L_2),
        A_3 + -1*A_1 + -2*C <= 0),
     Or(L_1 == L_0, S_4 <= A_1 + -1*L_1 + -1*B + 3*C),
     Or(L_1 == L_0, S_3 <= A_1 + -1*L_1 + -1*B + 2*C),
     -1*B + -1*L_2 + A_2 + -2*C <= A_0 + -1*L_0,
     -1*A_1 + L_0 + S_1 <= 0,
     Or(Not(A_1 + -1*L_0 <= -1*B + -1*L_2 + A_2 + -1*C),
        C + A_1 + -1*A_2 + L_2 + B + -1*L_0 == 0),
     S_1 >= -1*B + -1*L_2 + A_2 + -2*C,
     Or(A_1 + -1*L_0 + L_2 + -1*A_2 + C <= 0,
        Not(L_0 == L_1),
        L_2 == L_0),
     Or(L_3 == L_2, S_2 <= -1*B + -1*L_3 + A_3 + -1*C),
     -1*C + -1*A_1 + L_0 + S_2 <= 0,
     Or(-2*C + -1*B + A_3 + -1*A_1 + L_0 + -1*L_3 == 0,
        Not(A_1 + -1*L_0 <= -1*B + -1*L_3 + A_3 + -2*C)),
     Or(Not(L_1 <= L_0),
        Not(L_1 == L_2),
        L_3 == L_1,
        A_2 + -1*L_0 + L_3 + -1*A_3 + C <= 0),
     -1*C + L_0 + S_1 + -1*A_0 <= 0,
     S_2 >= -1*B + -1*L_3 + A_3 + -2*C,
     S_4 <= -1*L_0 + -1*Q_4 + A_4,
     -2*C + S_1 + -1*S_0 <= 0,
     Or(S_3 >= A_2 + -1*L_0,
        C + A_1 + -1*L_0 + -1*S_3 <= 0,
        Not(0 <= C + -1*A_1 + L_0 + S_0)),
     -1*B + -1*L_3 + A_3 + -3*C <= A_0 + -1*L_0,
     Or(L_3 == L_2,
        Not(L_1 <= L_0),
        S_1 <= -1*B + -1*L_3 + A_3 + -2*C,
        A_2 + -1*L_0 <= -1*B + -1*L_3 + A_3 + -1*C),
     S_3 >= -1*B + -1*L_3 + A_3 + -1*C,
     Or(A_3 + -1*L_3 + -1*B == A_2 + -1*L_0 + C,
        Not(A_2 + -1*L_0 <= -1*B + -1*L_3 + A_3 + -1*C)),
     Or(A_1 + -1*L_0 + -1*S_2 <= 0, C + -1*S_2 + S_0 <= 0),
     Or(Not(L_0 == L_2),
        L_3 == L_0,
        A_2 + -1*L_0 <= -1*B + -1*L_3 + A_3 + -1*C,
        A_1 + -1*L_0 + L_3 + -1*A_3 + 2*C <= 0),
     Or(Not(L_2 <= L_1),
        Not(L_2 == L_3),
        Q_4 == B,
        Not(A_1 <= -3*C + -1*Q_4 + A_4),
        3*C + A_1 + -1*A_4 + Q_4 == 0),
     Or(Q_4 == 0,
        S_1 <= -1*L_0 + -3*C + -1*Q_4 + A_4,
        A_2 <= -2*C + -1*Q_4 + A_4,
        A_3 <= -1*C + -1*Q_4 + A_4),
     Or(Q_4 == 0,
        A_2 <= -2*C + -1*Q_4 + A_4,
        A_3 <= -1*C + -1*Q_4 + A_4,
        S_0 <= -1*L_0 + -4*C + -1*Q_4 + A_4,
        0 <= C + -1*A_1 + L_0 + S_0),
     Or(Q_4 == 0,
        S_2 <= -1*L_0 + -2*C + -1*Q_4 + A_4,
        A_3 <= -1*C + -1*Q_4 + A_4),
     Or(Q_4 == 0,
        A_2 <= -2*C + -1*Q_4 + A_4,
        Not(A_2 + -1*A_1 + -1*C <= 0),
        A_3 <= -1*C + -1*Q_4 + A_4,
        Not(0 <= C + -1*A_1 + L_0 + S_0)),
     S_0 >= -1*B + -1*L_3 + A_3 + -4*C,
     Or(Not(L_1 <= L_0),
        L_3 == L_1,
        Not(A_2 + -1*A_1 + -1*C <= 0),
        S_0 <= -1*B + -1*L_3 + A_3 + -3*C,
        A_2 + -1*L_0 <= -1*B + -1*L_3 + A_3 + -1*C),
     Or(Not(L_1 <= L_0),
        L_3 == L_1,
        A_3 + -1*L_3 <= A_2 + -1*L_1 + C,
        S_0 <= -1*B + -1*L_3 + A_3 + -3*C,
        A_2 + -1*L_0 <= -1*B + -1*L_3 + A_3 + -1*C,
        0 <= C + -1*A_1 + L_0 + S_0),
     Or(L_3 == L_0,
        A_3 + -1*L_3 <= A_2 + -1*L_0 + C,
        A_1 + -1*L_0 <= -1*B + -1*L_3 + A_3 + -2*C,
        A_2 + -1*L_0 <= -1*B + -1*L_3 + A_3 + -1*C,
        Not(0 <= C + -1*A_1 + L_0 + S_0)),
     Or(L_3 == L_2,
        A_1 + -1*L_0 <= -1*B + -1*L_2 + A_2 + -1*C,
        Not(A_3 + -1*L_3 <= A_2 + -1*L_1 + C),
        S_0 <= -1*B + -1*L_2 + A_2 + -2*C),
     S_1 >= -1*B + -1*L_3 + A_3 + -3*C,
     Or(Q_4 == 0, S_3 <= -1*L_0 + -1*C + -1*Q_4 + A_4),
     Or(Not(L_1 <= L_0),
        Not(L_2 <= L_1),
        Not(L_2 == L_3),
        Q_4 == B,
        -4*C + -1*Q_4 + A_4 <= A_0),
     -2*C + S_2 + -1*S_1 <= 0,
     Or(Q_4 == B,
        -1*A_3 + -1*C + -1*Q_4 + A_4 == 0,
        Not(A_3 <= -1*C + -1*Q_4 + A_4)),
     Or(Not(L_1 <= L_0),
        Not(L_2 <= L_1),
        Q_4 == B,
        Not(0 == -1*A_3 + -1*C + -1*Q_4 + A_4),
        S_3 >= -1*L_0 + -2*C + -1*Q_4 + A_4),
     Or(Q_4 == B,
        A_3 + -1*A_2 + -1*C <= 0,
        Not(0 == -1*A_3 + -1*C + -1*Q_4 + A_4)),
     Or(Not(L_1 <= L_0),
        Not(L_2 <= L_1),
        Not(L_3 <= L_2),
        Q_4 == B,
...